NAME : A-n45-k6
COMMENT : (Augerat et al, Min no of trucks: 6, Optimal value: 944)
TYPE : CVRP
DIMENSION : 45
EDGE_WEIGHT_TYPE : EUC_2D 
CAPACITY : 100
NODE_COORD_SECTION 
 1 31 73
 2 11 67
 3 52 96
 4 81 29
 5 97 62
 6 71 5
 7 6 56
 8 48 50
 9 91 17
 10 49 68
 11 85 29
 12 11 16
 13 74 98
 14 56 37
 15 13 81
 16 66 80
 17 96 55
 18 36 17
 19 32 23
 20 6 13
 21 64 30
 22 87 5
 23 75 61
 24 40 72
 25 1 44
 26 60 95
 27 27 49
 28 15 33
 29 46 53
 30 28 43
 31 3 9
 32 1 100
 33 53 46
 34 98 8
 35 6 25
 36 7 81
 37 96 88
 38 2 35
 39 32 94
 40 95 94
 41 9 11
 42 96 16
 43 90 68
 44 33 31
 45 6 59
DEMAND_SECTION 
1 0 
2 19 
3 2 
4 12 
5 20 
6 6 
7 17 
8 8 
9 14 
10 2 
11 8 
12 5 
13 7 
14 22 
15 14 
16 17 
17 23 
18 15 
19 21 
20 2 
21 24 
22 10 
23 20 
24 6 
25 21 
26 10 
27 6 
28 13 
29 21 
30 24 
31 11 
32 16 
33 8 
34 11 
35 11 
36 22 
37 17 
38 22 
39 17 
40 8 
41 23 
42 5 
43 3 
44 18 
45 12 
DEPOT_SECTION 
 1  
 -1  
EOF 
